\ Model (null)_copy
\ LP format - for model browsing. Use MPS format to capture full model detail.
Minimize
 
Subject To
 c3_j3: x033 + x034 + x035 + x036 + x133 + x134 + x135 + x136 + x233 + x234
   + x235 + x236 + x433 + x434 + x435 + x436 + x533 + x534 + x535 + x536
   = 2
 c4_p4_j3: x034 + x134 + x234 + x434 + x534 <= 1
 c6_p3: x013 + x023 + x033 + x043 + x053 + x063 = 1
 c6_p5: x015 + x025 + x035 + x045 + x055 + x065 = 1
 c6_p6: x016 + x026 + x036 + x046 + x056 + x066 = 1
 c20_p3: - 2 x013 - 2 x023 - 2 x033 - 2 x043 - 2 x053 + y03 + y13 + y23
   + y33 + y43 + y53 + y63 + y73 + y83 + y93 + y103 = 0
 c20_p5: - 2 x015 - 2 x025 - 2 x035 - 2 x045 - 2 x055 + y05 + y15 + y25
   + y35 + y45 + y55 + y65 + y75 + y85 + y95 + y105 = 0
 c20_p6: - 2 x016 - 2 x026 - 2 x036 - 2 x046 - 2 x056 + y06 + y16 + y26
   + y36 + y46 + y56 + y66 + y76 + y86 + y96 + y106 = 0
 c24_p3_j3: 4 x033 + 4 x133 + 4 x233 + 4 x433 + 4 x533 - y03 - y13 - y23
   - y33 - y43 - y53 - y63 - y73 - y83 - y93 - y103 <= 0
 c24_p5_j3: 4 x035 + 4 x135 + 4 x235 + 4 x435 + 4 x535 - y05 - y15 - y25
   - y35 - y45 - y55 - y65 - y75 - y85 - y95 - y105 <= 0
 c24_p6_j3: 4 x036 + 4 x136 + 4 x236 + 4 x436 + 4 x536 - y06 - y16 - y26
   - y36 - y46 - y56 - y66 - y76 - y86 - y96 - y106 <= 0
Bounds
Binaries
 x013 x015 x016 x023 x025 x026 x033 x034 x035 x036 x043 x045 x046 x053 x055
 x056 x063 x065 x066 x133 x134 x135 x136 x233 x234 x235 x236 x433 x434 x435
 x436 x533 x534 x535 x536 y03 y05 y06 y13 y15 y16 y23 y25 y26 y33 y35 y36
 y43 y45 y46 y53 y55 y56 y63 y65 y66 y73 y75 y76 y83 y85 y86 y93 y95 y96
 y103 y105 y106
End
